
Gurobi 9.0.1 (linux64) logging started Thu Apr 30 05:57:56 2020

Gurobi Optimizer version 9.0.1 build v9.0.1rc0 (linux64)
Optimize a model with 872 rows, 990 columns and 6936 nonzeros
Model fingerprint: 0x877d0c1e
Variable types: 0 continuous, 990 integer (980 binary)
Coefficient statistics:
  Matrix range     [1e+00, 5e+00]
  Objective range  [3e+00, 1e+02]
  Bounds range     [1e+00, 1e+00]
  RHS range        [1e+00, 1e+00]

User MIP start produced solution with objective 501 (0.00s)
Loaded user MIP start with objective 501

Presolve removed 378 rows and 372 columns
Presolve time: 0.07s
Presolved: 494 rows, 618 columns, 4394 nonzeros
Variable types: 0 continuous, 618 integer (618 binary)

Root relaxation: objective 4.144493e+02, 310 iterations, 0.01 seconds

    Nodes    |    Current Node    |     Objective Bounds      |     Work
 Expl Unexpl |  Obj  Depth IntInf | Incumbent    BestBd   Gap | It/Node Time

     0     0  414.44928    0  124  501.00000  414.44928  17.3%     -    0s
     0     0  440.46161    0  145  501.00000  440.46161  12.1%     -    0s
     0     0  441.59313    0  137  501.00000  441.59313  11.9%     -    0s
     0     0  446.20669    0  167  501.00000  446.20669  10.9%     -    0s
     0     0  447.37081    0  160  501.00000  447.37081  10.7%     -    0s
     0     0  447.68996    0  163  501.00000  447.68996  10.6%     -    0s
     0     0  448.07245    0  161  501.00000  448.07245  10.6%     -    0s
     0     0  448.15808    0  162  501.00000  448.15808  10.5%     -    0s
     0     0  454.19778    0  126  501.00000  454.19778  9.34%     -    0s
     0     0  455.45262    0  153  501.00000  455.45262  9.09%     -    0s
     0     0  456.24827    0  147  501.00000  456.24827  8.93%     -    0s
     0     0  463.79211    0  163  501.00000  463.79211  7.43%     -    0s
     0     0  464.54242    0  151  501.00000  464.54242  7.28%     -    0s
     0     0  464.58210    0  151  501.00000  464.58210  7.27%     -    0s
     0     0  464.59011    0  160  501.00000  464.59011  7.27%     -    0s
     0     0  464.98085    0  165  501.00000  464.98085  7.19%     -    0s
     0     0  465.11303    0  165  501.00000  465.11303  7.16%     -    0s
     0     0  466.47222    0  172  501.00000  466.47222  6.89%     -    0s
     0     0  466.61303    0  176  501.00000  466.61303  6.86%     -    0s
     0     0  466.70277    0  172  501.00000  466.70277  6.85%     -    0s
     0     0  466.72064    0  173  501.00000  466.72064  6.84%     -    0s
     0     0  467.04557    0  174  501.00000  467.04557  6.78%     -    0s
     0     0  467.10947    0  180  501.00000  467.10947  6.76%     -    0s
     0     0  467.13229    0  181  501.00000  467.13229  6.76%     -    0s
     0     0  467.21839    0  182  501.00000  467.21839  6.74%     -    0s
     0     0  467.21839    0  172  501.00000  467.21839  6.74%     -    0s
     0     0  467.61631    0  108  501.00000  467.61631  6.66%     -    0s
     0     0  467.61631    0  134  501.00000  467.61631  6.66%     -    0s
     0     0  467.86255    0  147  501.00000  467.86255  6.61%     -    0s
     0     0  468.43048    0  147  501.00000  468.43048  6.50%     -    0s
     0     0  468.64400    0  161  501.00000  468.64400  6.46%     -    0s
     0     0  469.74537    0  162  501.00000  469.74537  6.24%     -    0s
     0     0  469.78011    0  164  501.00000  469.78011  6.23%     -    0s
     0     0  474.18935    0  120  501.00000  474.18935  5.35%     -    1s
     0     0  474.55814    0   80  501.00000  474.55814  5.28%     -    1s
     0     0  474.60971    0  123  501.00000  474.60971  5.27%     -    1s
     0     0  475.25567    0  125  501.00000  475.25567  5.14%     -    1s
     0     0  475.55900    0  122  501.00000  475.55900  5.08%     -    1s
     0     0  475.74638    0  120  501.00000  475.74638  5.04%     -    1s
     0     0  475.77488    0  120  501.00000  475.77488  5.03%     -    1s
     0     0  475.79167    0  118  501.00000  475.79167  5.03%     -    1s
     0     0  475.79629    0  120  501.00000  475.79629  5.03%     -    1s
     0     0  475.84196    0  123  501.00000  475.84196  5.02%     -    1s
     0     0  475.84196    0   92  501.00000  475.84196  5.02%     -    1s
     0     0  475.96612    0   88  501.00000  475.96612  5.00%     -    1s
     0     0  475.96612    0  148  501.00000  475.96612  5.00%     -    1s
     0     0  475.96612    0   86  501.00000  475.96612  5.00%     -    1s
     0     0  475.96612    0   92  501.00000  475.96612  5.00%     -    1s
     0     0  475.96612    0   92  501.00000  475.96612  5.00%     -    1s
     0     0  475.96612    0   87  501.00000  475.96612  5.00%     -    1s
     0     2  480.00000    0   87  501.00000  480.00000  4.19%     -    1s

Cutting planes:
  Gomory: 3
  MIR: 16
  Zero half: 25
  RLT: 1

Explored 37 nodes (3936 simplex iterations) in 1.76 seconds
Thread count was 1 (of 40 available processors)

Solution count 1: 501 

Optimal solution found (tolerance 1.00e-04)
Best objective 5.010000000000e+02, best bound 5.010000000000e+02, gap 0.0000%

User-callback calls 860, time in user-callback 0.00 sec
